NAME: eilB101_25
COMMENT: 1116.82
VEHICLE: 14
TIME: 144.6219
DIMENSION: 101
CAPACITY: 112
DELIVERY_SECTION
0 0 0
1 1 5.6
2 1 1.12
3 1 1.12
4 1 1.12
5 1 1.04
6 2 5.6
7 2 1.12
8 2 0.28
9 3 11.2
10 3 1.12
11 3 0.68
12 4 11.2
13 4 5.6
14 4 1.12
15 4 1.08
16 5 11.2
17 5 11.2
18 5 1.12
19 5 1.12
20 5 1.12
21 5 0.24
22 6 1.12
23 6 1.12
24 6 0.76
25 7 1.12
26 7 1.12
27 7 1.12
28 7 1.12
29 7 0.52
30 8 5.6
31 8 1.12
32 8 1.12
33 8 1.12
34 8 0.04
35 9 11.2
36 9 1.12
37 9 1.12
38 9 1.12
39 9 1.12
40 9 0.32
41 10 11.2
42 10 1.12
43 10 1.12
44 10 1.12
45 10 1.12
46 10 0.32
47 11 11.2
48 11 0.8
49 12 11.2
50 12 5.6
51 12 1.12
52 12 1.08
53 13 11.2
54 13 11.2
55 13 0.6
56 14 11.2
57 14 5.6
58 14 1.12
59 14 1.12
60 14 0.96
61 15 5.6
62 15 1.12
63 15 1.12
64 15 0.16
65 16 11.2
66 16 5.6
67 16 1.12
68 16 1.08
69 17 1.12
70 17 0.88
71 18 11.2
72 18 0.8
73 19 11.2
74 19 5.6
75 19 0.2
76 20 5.6
77 20 1.12
78 20 1.12
79 20 1.12
80 20 0.04
81 21 5.6
82 21 1.12
83 21 1.12
84 21 1.12
85 21 1.12
86 21 0.92
87 22 11.2
88 22 5.6
89 22 1.12
90 22 0.08
91 23 28
92 23 1
93 24 1.12
94 24 1.12
95 24 0.76
96 25 5.6
97 25 0.4
98 26 11.2
99 26 5.6
100 26 0.2
101 27 11.2
102 27 1.12
103 27 1.12
104 27 1.12
105 27 1.12
106 27 0.32
107 28 11.2
108 28 1.12
109 28 1.12
110 28 1.12
111 28 1.12
112 28 0.32
113 29 5.6
114 29 1.12
115 29 1.12
116 29 1.12
117 29 0.04
118 30 11.2
119 30 5.6
120 30 1.12
121 30 1.12
122 30 1.12
123 30 0.84
124 31 11.2
125 31 11.2
126 31 1.12
127 31 1.12
128 31 1.12
129 31 1.12
130 31 0.12
131 32 11.2
132 32 11.2
133 32 0.6
134 33 5.6
135 33 1.12
136 33 1.12
137 33 1.12
138 33 1.12
139 33 0.92
140 34 11.2
141 34 1.12
142 34 1.12
143 34 0.56
144 35 5.6
145 35 1.12
146 35 1.12
147 35 0.16
148 36 1.12
149 36 1.12
150 36 1.12
151 36 1.12
152 36 0.52
153 37 5.6
154 37 1.12
155 37 1.12
156 37 0.16
157 38 11.2
158 38 1.12
159 38 1.12
160 38 1.12
161 38 1.12
162 38 0.32
163 39 28
164 39 1.12
165 39 1.12
166 39 0.76
167 40 5.6
168 40 1.12
169 40 1.12
170 40 1.12
171 40 0.04
172 41 1.12
173 41 1.12
174 41 1.12
175 41 1.12
176 41 0.52
177 42 1.12
178 42 1.12
179 42 1.12
180 42 1.12
181 42 0.52
182 43 5.6
183 43 1.12
184 43 0.28
185 44 11.2
186 44 5.6
187 44 1.12
188 44 0.08
189 45 11.2
190 45 1.12
191 45 1.12
192 45 1.12
193 45 1.12
194 45 0.32
195 46 1
196 47 11.2
197 47 11.2
198 47 1.12
199 47 1.12
200 47 1.12
201 47 1.12
202 47 0.12
203 48 28
204 48 5.6
205 48 1.12
206 48 1.12
207 48 0.16
208 49 28
209 49 1.12
210 49 0.88
211 50 11.2
212 50 1.12
213 50 0.68
214 51 5.6
215 51 1.12
216 51 1.12
217 51 1.12
218 51 1.04
219 52 5.6
220 52 1.12
221 52 1.12
222 52 1.12
223 52 0.04
224 53 11.2
225 53 1.12
226 53 1.12
227 53 0.56
228 54 11.2
229 54 5.6
230 54 1.12
231 54 0.08
232 55 1.12
233 55 0.88
234 56 5.6
235 56 0.4
236 57 5.6
237 57 1.12
238 57 0.28
239 58 11.2
240 58 5.6
241 58 1.12
242 58 0.08
243 59 28
244 60 1.12
245 60 1.12
246 60 0.76
247 61 11.2
248 61 1.12
249 61 0.68
250 62 11.2
251 62 5.6
252 62 1.12
253 62 1.08
254 63 5.6
255 63 1.12
256 63 1.12
257 63 1.12
258 63 1.04
259 64 5.6
260 64 1.12
261 64 1.12
262 64 1.12
263 64 0.04
264 65 11.2
265 65 5.6
266 65 1.12
267 65 1.12
268 65 0.96
269 66 11.2
270 66 11.2
271 66 1.12
272 66 1.12
273 66 0.36
274 67 11.2
275 67 11.2
276 67 1.12
277 67 1.12
278 67 0.36
279 68 28
280 68 5.6
281 68 1.12
282 68 1.12
283 68 0.16
284 69 5.6
285 69 0.4
286 70 1.12
287 70 1.12
288 70 1.12
289 70 1.12
290 70 0.52
291 71 11.2
292 71 1.12
293 71 1.12
294 71 1.12
295 71 0.44
296 72 11.2
297 72 11.2
298 72 1.12
299 72 1.12
300 72 0.36
301 73 5.6
302 73 1.12
303 73 1.12
304 73 1.12
305 73 0.04
306 74 5.6
307 74 1.12
308 74 1.12
309 74 0.16
310 75 11.2
311 75 5.6
312 75 1.12
313 75 0.08
314 76 11.2
315 76 1.12
316 76 0.68
317 77 11.2
318 77 1.12
319 77 1.12
320 77 0.56
321 78 1.12
322 78 1.12
323 78 0.76
324 79 11.2
325 79 11.2
326 79 0.6
327 80 5.6
328 80 0.4
329 81 11.2
330 81 11.2
331 81 1.12
332 81 1.12
333 81 1.12
334 81 0.24
335 82 11.2
336 82 1.12
337 82 1.12
338 82 1.12
339 82 1.12
340 82 0.32
341 83 5.6
342 83 1.12
343 83 1.12
344 83 1.12
345 83 1.12
346 83 0.92
347 84 5.6
348 84 1.12
349 84 0.28
350 85 28
351 85 11.2
352 85 1.12
353 85 0.68
354 86 28
355 86 5.6
356 86 1.12
357 86 0.28
358 87 11.2
359 87 11.2
360 87 1.12
361 87 1.12
362 87 1.12
363 87 0.24
364 88 5.6
365 88 1.12
366 88 1.12
367 88 1.12
368 88 0.04
369 89 11.2
370 89 1.12
371 89 1.12
372 89 1.12
373 89 0.44
374 90 1.12
375 90 1.12
376 90 0.76
377 91 1
378 92 1.12
379 92 0.88
380 93 11.2
381 93 5.6
382 93 1.12
383 93 1.12
384 93 1.12
385 93 1.12
386 93 0.72
387 94 11.2
388 94 11.2
389 94 1.12
390 94 1.12
391 94 1.12
392 94 1.12
393 94 0.12
394 95 11.2
395 95 5.6
396 95 1.12
397 95 1.12
398 95 0.96
399 96 5.6
400 96 1.12
401 96 1.12
402 96 1.12
403 96 1.12
404 96 0.92
405 97 11.2
406 97 0.8
407 98 5.6
408 98 1.12
409 98 1.12
410 98 1.12
411 98 1.04
412 99 5.6
413 99 1.12
414 99 1.12
415 99 1.12
416 99 0.04
417 100 11.2
418 100 5.6
419 100 0.2
PICKUP_SECTION
NODE_SECTION
35 35

41 49

35 17

55 45

55 20

15 30

25 30

20 50

10 43

55 60

30 60

20 65

50 35

30 25

15 10

30  5

10 20
 
5 30

20 40

15 60

45 65

45 20

45 10

55  5

65 35

65 20

45 30

35 40

41 37

64 42

40 60

31 52

35 69

53 52

65 55

63 65

 2 60

20 20

 5  5

60 12

40 25

42  7

24 12

23  3

11 14

 6 38

 2 48

 8 56

13 52

 6 68

47 47

49 58

27 43

37 31

57 29

63 23

53 12

32 12

36 26

21 24

17 34

12 24

24 58

27 69

15 77

62 77

49 73

67  5

56 39

37 47

37 56

57 68

47 16

44 17

46 13

49 11

49 42

53 43

61 52

57 48

56 37

55 54

15 47

14 37

11 31

16 22

 4 18

28 18

26 52

26 35

31 67

15 19

22 22

18 24

26 27

25 24

22 27

25 21

19 21

20 26

18 18
DISTANCE_SECTION
DEPOT_SECTION
0
EOF